Using license file /home/anup/gurobi.lic
Academic license - for non-commercial use only
Model update took: 6.365776062011719e-05 seconds
Warning: variables 156 and 177 have the same name "rows_tot_cpu_1"
Warning: constraint name "accuracy_(1, sk_1)[0]" has a space
Warning: general constraint 0 and general constraint 11 have the same name "mem_access_time_cpu_1"
Warning: to let Gurobi read it back, use rlp format
Gurobi Optimizer version 9.0.0 build v9.0.0rc2 (linux64)
Optimize a model with 228 rows, 206 columns and 559 nonzeros
Model fingerprint: 0x9dfd9be8
Model has 23 general constraints
Variable types: 146 continuous, 60 integer (52 binary)
Coefficient statistics:
  Matrix range     [1e-04, 5e+03]
  Objective range  [1e+00, 1e+00]
  Bounds range     [1e+00, 7e+00]
  RHS range        [1e+00, 3e+04]

---------------------------------------------------------------------------
Multi-objectives: starting optimization with 2 objectives ... 
---------------------------------------------------------------------------

Multi-objectives: applying initial presolve ...
---------------------------------------------------------------------------

Presolve added 16 rows and 5442 columns
Presolve time: 0.03s
Presolved: 244 rows and 5648 columns
---------------------------------------------------------------------------

Multi-objectives: optimize objective 1 (ns) ...
---------------------------------------------------------------------------

Presolve removed 65 rows and 67 columns
Presolve time: 0.03s
Presolved: 179 rows, 5581 columns, 16721 nonzeros
Presolved model has 27 SOS constraint(s)
Variable types: 5516 continuous, 65 integer (59 binary)

Root relaxation: objective 1.022770e+01, 106 iterations, 0.00 seconds

    Nodes    |    Current Node    |     Objective Bounds      |     Work
 Expl Unexpl |  Obj  Depth IntInf | Incumbent    BestBd   Gap | It/Node Time

     0     0   10.70443    0   18          -   10.70443      -     -    0s
     0     0   10.70443    0   13          -   10.70443      -     -    0s
     0     0   10.70443    0   14          -   10.70443      -     -    0s
     0     2   10.70443    0   14          -   10.70443      -     -    0s
* 4590   953              89      42.6085744   10.72384  74.8%   3.6    1s
H 5538   586                      41.9999590   10.72384  74.5%   6.2    2s
H 7776   792                      41.9972146   10.72384  74.5%   8.1    4s
  9986   960   13.99999   66    8   41.99721   10.72384  74.5%   8.0    5s
H 9998   960                      41.6776861   10.72384  74.3%   8.0    5s
H17172  1487                      40.9999600   10.72384  73.8%   9.4    6s
H19290  1611                      40.7124250   10.72384  73.7%  10.4    7s
H25379  2035                      40.6682795   10.72384  73.6%  12.1    9s
 26889  2304   39.99996   74    7   40.66828   10.72384  73.6%  12.1   10s
*27087  2027             103      39.9999610   10.72384  73.2%  12.1   10s
H28693  1924                      36.9999640   10.72384  71.0%  12.1   10s
*30690  1733             106      31.9999690   10.72384  66.5%  12.1   10s
H32495  1675                      30.9999770   10.72384  65.4%  12.3   11s
H34014  1654                      30.9999700   10.72384  65.4%  12.6   12s
H37455  1785                      29.9999778   10.72384  64.3%  13.2   13s
H38890  1787                      29.9999710   10.72384  64.3%  13.5   13s
H39461  1742                      28.9999720   10.72384  63.0%  13.7   14s
 41636  1746   11.43925   24    7   28.99997   10.72384  63.0%  14.2   15s
*45465  1765             108      28.9985280   10.72384  63.0%  14.8   16s
H46052  1647                      27.9999799   10.72384  61.7%  14.8   16s
*46432  1460             104      27.9999730   10.72384  61.7%  14.8   16s
 56555  1652   10.72384   58    6   27.99997   10.72384  61.7%  16.1   20s
*61864  1727             110      26.9999740   11.43925  57.6%  15.7   22s
 72387  2325 infeasible   57        26.99997   11.43925  57.6%  16.7   25s
 95919  3503   13.99999   51   15   26.99997   11.43925  57.6%  18.0   30s
 117348  4531   17.63781   58   12   26.99997   11.43925  57.6%  18.7   35s
 137589  5108   12.41518   66   10   26.99997   11.43925  57.6%  19.1   40s
H139688  5069                      26.5619422   11.43925  56.9%  19.1   40s
H148648  5755                      26.5618623   11.43925  56.9%  18.7   42s
H148688  5266                      26.5064810   11.43925  56.8%  18.7   42s
*148962  4308             108      22.2542811   11.43925  48.6%  18.7   43s
 157470  4840 infeasible   72        22.25428   11.43925  48.6%  18.6   45s
*171703  5302             102      22.0014980   11.43925  48.0%  18.1   47s
*175266  5532              98      21.7537524   11.43925  47.4%  18.0   47s
*175445  4297             102      17.5083086   11.43925  34.7%  18.0   47s
*177489  4020             100      15.5091010   11.43925  26.2%  17.9   48s
*178271  4068             110      15.5090975   11.43925  26.2%  17.9   48s
*178433  3956             105      15.0010321   11.43925  23.7%  17.8   48s
*182737  4104             117      14.9999860   11.43925  23.7%  17.7   48s
 190224  4105 infeasible   44        14.99999   11.43925  23.7%  17.7   50s
 216054  4705   11.43925   71   11   14.99999   11.43925  23.7%  17.9   55s
 240691  4571 infeasible   54        14.99999   11.43925  23.7%  18.0   60s
H249122  3523                      13.6099924   11.43925  15.9%  18.0   62s
 259232  3544 infeasible   46        13.60999   11.43925  15.9%  17.9   65s
 284079  3496 infeasible   51        13.60999   11.43925  15.9%  17.8   70s
 308057  3416 infeasible   68        13.60999   11.43925  15.9%  17.9   75s
 334304  3667 infeasible   75        13.60999   11.43925  15.9%  17.6   80s
 362542  3755   11.43925   58   10   13.60999   11.43925  15.9%  17.3   85s
 388543  4107   11.43925   79    3   13.60999   11.43925  15.9%  17.2   90s
 416946  3973 infeasible   68        13.60999   11.43925  15.9%  17.4   95s
 445250  4526   11.43925   84    5   13.60999   11.43925  15.9%  17.3  100s
 470169  4776     cutoff   64        13.60999   11.43925  15.9%  17.5  105s
 493450  4749 infeasible   80        13.60999   11.43925  15.9%  17.6  110s
 518599  5093 infeasible   73        13.60999   11.43925  15.9%  18.0  115s
 542845  4956 infeasible   83        13.60999   11.43925  15.9%  18.2  120s
 562599  4661     cutoff   84        13.60999   11.43925  15.9%  18.3  125s
 584643  3459 infeasible   77        13.60999   11.51164  15.4%  18.4  130s
 606093  1870 infeasible   61        13.60999   11.99999  11.8%  18.4  135s
 623915  1978   12.00083   66   12   13.60999   11.99999  11.8%  18.5  140s
 641291  1956 infeasible   58        13.60999   11.99999  11.8%  18.6  145s
 659349  2146 infeasible   72        13.60999   11.99999  11.8%  18.7  150s
 676889  2330 infeasible   74        13.60999   11.99999  11.8%  18.7  155s
 691699  2506     cutoff   58        13.60999   11.99999  11.8%  18.8  160s
 708091  2403 infeasible   62        13.60999   11.99999  11.8%  18.9  165s
H722787  1964                      13.6099894   12.44660  8.55%  19.1  169s
 723148  2017   12.50989   56   11   13.60999   12.44660  8.55%  19.1  170s
 736629  2953   12.50989   52   10   13.60999   12.50989  8.08%  19.3  175s
 751793  3365 infeasible   51        13.60999   12.50989  8.08%  19.4  180s
 762879  3467   12.50989   47   11   13.60999   12.50989  8.08%  19.6  185s
 780004  3613   12.50989   46   12   13.60999   12.50989  8.08%  19.7  190s
 794961  3539 infeasible   55        13.60999   12.50989  8.08%  19.8  195s
 811767  3700   12.51083   66   11   13.60999   12.50989  8.08%  19.9  200s
 824896  4038   12.50989   63    9   13.60999   12.50989  8.08%  20.0  205s
 838545  4348   12.50989   36    7   13.60999   12.50989  8.08%  20.2  210s
 852480  4652     cutoff   52        13.60999   12.50989  8.08%  20.3  215s
*865950   494              91      12.5098915   12.50989  0.00%  20.5  219s

Cutting planes:
  Gomory: 1

Explored 866283 nodes (17766552 simplex iterations) in 219.58 seconds
Thread count was 8 (of 8 available processors)

Solution count 10: 12.5099 13.61 15 ... 22.2543

Optimal solution found (tolerance 1.00e-04)
Best objective 1.250989150251e+01, best bound 1.250989150251e+01, gap 0.0000%
---------------------------------------------------------------------------

Multi-objectives: optimize objective 2 (res) ...
---------------------------------------------------------------------------


Loaded user MIP start with objective 151.263

Presolve removed 65 rows and 71 columns
Presolve time: 0.04s
Presolved: 180 rows, 5577 columns, 16735 nonzeros
Presolved model has 20 SOS constraint(s)
Variable types: 5512 continuous, 65 integer (57 binary)

Root simplex log...

Iteration    Objective       Primal Inf.    Dual Inf.      Time
       0    4.0007328e+01   3.569713e+02   0.000000e+00    220s
     110    7.2559454e+01   0.000000e+00   0.000000e+00    220s

Root relaxation: objective 7.255945e+01, 110 iterations, 0.00 seconds

    Nodes    |    Current Node    |     Objective Bounds      |     Work
 Expl Unexpl |  Obj  Depth IntInf | Incumbent    BestBd   Gap | It/Node Time

     0     0   73.65152    0   15  151.26320   73.65152  51.3%     -  219s
H    0     0                     148.0419829   73.65152  50.2%     -  219s
H    0     0                     148.0419807   73.65152  50.2%     -  219s
     0     0   82.60921    0   17  148.04198   82.60921  44.2%     -  220s
     0     0   82.60921    0   17  148.04198   82.60921  44.2%     -  220s
     0     2   82.60921    0   17  148.04198   82.60921  44.2%     -  220s
H   33     6                     147.9773256   82.60921  44.2%  72.7  220s
H  608   270                     147.9466669   82.88038  44.0%  17.3  221s
  2166   766   86.33883   51    0  147.94667   85.59827  42.1%  12.2  225s
H 4648   484                     137.9466669   85.59827  37.9%  15.0  226s
H 4653   484                     137.9465550   85.59827  37.9%  15.0  226s
 18061  4586  128.34519  169   10  137.94655   85.59827  37.9%  15.3  230s
H18071  4217                     127.9465550   85.59827  33.1%  15.3  230s
*23217  5009             181     117.9544631   85.59827  27.4%  15.0  231s
*23219  5005             182     117.9313316   85.59827  27.4%  15.0  231s
 44625 10042     cutoff  163       117.93133   85.59827  27.4%  14.2  235s
H46450 10153                     117.7986692   85.59827  27.3%  14.2  235s
 73080 16110  114.95909  157    8  117.79867   85.59827  27.3%  13.7  240s
 98786 21293     cutoff  165       117.79867   85.64896  27.3%  13.3  245s
*111773 23913             199     117.7775950   85.70280  27.2%  12.9  246s
H117436 24059                     117.7185764   85.81074  27.1%  12.8  247s
 128597 26262 infeasible  172       117.71858   86.02481  26.9%  12.8  250s
 163399 32930   86.67790  143   12  117.71858   86.39526  26.6%  12.4  255s
 199173 39006   92.03968  152   10  117.71858   87.02870  26.1%  12.1  260s
 235842 44176  108.25528  147    9  117.71858   87.65467  25.5%  11.8  265s
 268257 44921 infeasible  157       117.71858   91.30349  22.4%  11.8  270s
 294751 42723   95.90407  140   12  117.71858   95.64896  18.7%  12.4  275s
 321826 37994     cutoff  141       117.71858   97.53535  17.1%  12.6  280s
 348935 33414 infeasible  155       117.71858  104.17632  11.5%  12.7  285s
 375424 29893  106.50321  153   10  117.71858  106.39267  9.62%  12.9  290s
*391733 20313             192     117.0287048  107.02870  8.54%  12.9  292s
*401772  1354             187     107.7798939  107.71858  0.06%  12.8  295s
*401812    54             191     107.7185764  107.71858  0.00%  12.8  295s

Explored 401870 nodes (5154528 simplex iterations) in 295.01 seconds
Thread count was 8 (of 8 available processors)

Solution count 10: 107.719 107.78 117.029 ... 137.947

Optimal solution found (tolerance 1.00e-04)
Best objective 1.077185764313e+02, best bound 1.077185764313e+02, gap 0.0000%

---------------------------------------------------------------------------
Multi-objectives: solved in 295.02 seconds, solution count 9

Model optimize took: 295.0193634033203 seconds
frac[0,0] 0
frac[0,1] 0
frac[0,2] 0
frac[0,3] 0
frac[0,4] 0
frac[0,5] 1
frac[0,6] 1
frac[0,7] 0
frac[0,8] 0
frac[0,9] 0
frac[0,10] 0
frac[0,11] 0
frac[0,12] 0
frac[1,0] 0
frac[1,1] 0
frac[1,2] 0
frac[1,3] 0
frac[1,4] 1
frac[1,5] 0
frac[1,6] 0
frac[1,7] 1
frac[1,8] 0
frac[1,9] 0
frac[1,10] 0
frac[1,11] 0
frac[1,12] 0
frac[2,0] 1
frac[2,1] 1
frac[2,2] 1
frac[2,3] 1
frac[2,4] 0
frac[2,5] 0
frac[2,6] 0
frac[2,7] 0
frac[2,8] 0
frac[2,9] 1
frac[2,10] 0
frac[2,11] 0
frac[2,12] 0
frac[3,0] 0
frac[3,1] 0
frac[3,2] 0
frac[3,3] 0
frac[3,4] 0
frac[3,5] 0
frac[3,6] 0
frac[3,7] 0
frac[3,8] 1
frac[3,9] 0
frac[3,10] 1
frac[3,11] 1
frac[3,12] 1
mem[0,0] 0
mem[0,1] 0
mem[0,2] 0
mem[0,3] 0
mem[0,4] 0
mem[0,5] 5309.14
mem[0,6] 5309.14
mem[0,7] 0
mem[0,8] 0
mem[0,9] 0
mem[0,10] 0
mem[0,11] 0
mem[0,12] 0
mem[1,0] 0
mem[1,1] 0
mem[1,2] 0
mem[1,3] 0
mem[1,4] 5309.14
mem[1,5] 0
mem[1,6] 0
mem[1,7] 5309.14
mem[1,8] 0
mem[1,9] 0
mem[1,10] 0
mem[1,11] 0
mem[1,12] 0
mem[2,0] 21.2383
mem[2,1] 21.2383
mem[2,2] 21.2383
mem[2,3] 21.2383
mem[2,4] 0
mem[2,5] 0
mem[2,6] 0
mem[2,7] 0
mem[2,8] 0
mem[2,9] 10.6211
mem[2,10] 0
mem[2,11] 0
mem[2,12] 0
mem[3,0] 0
mem[3,1] 0
mem[3,2] 0
mem[3,3] 0
mem[3,4] 0
mem[3,5] 0
mem[3,6] 0
mem[3,7] 0
mem[3,8] 10.6211
mem[3,9] 0
mem[3,10] 10.6211
mem[3,11] 10.6211
mem[3,12] 10.6211
rows[0,0] -0
rows[0,1] -0
rows[0,2] -0
rows[0,3] -0
rows[0,4] 0
rows[0,5] 1
rows[0,6] 1
rows[0,7] 0
rows[0,8] -0
rows[0,9] 0
rows[0,10] -0
rows[0,11] 0
rows[0,12] -0
rows[1,0] -0
rows[1,1] 0
rows[1,2] -0
rows[1,3] 0
rows[1,4] 1
rows[1,5] 0
rows[1,6] 0
rows[1,7] 1
rows[1,8] -0
rows[1,9] -0
rows[1,10] 0
rows[1,11] -0
rows[1,12] -0
rows[2,0] 1
rows[2,1] 1
rows[2,2] 1
rows[2,3] 1
rows[2,4] -0
rows[2,5] -0
rows[2,6] -0
rows[2,7] -0
rows[2,8] -0
rows[2,9] 1
rows[2,10] -0
rows[2,11] 0
rows[2,12] 0
rows[3,0] 0
rows[3,1] -0
rows[3,2] -0
rows[3,3] -0
rows[3,4] -0
rows[3,5] -0
rows[3,6] -0
rows[3,7] -0
rows[3,8] 1
rows[3,9] 0
rows[3,10] 1
rows[3,11] 1
rows[3,12] 1
rows_tot_cpu_1 2
mem_tot_cpu_1 10618.3
m_access_time_cpu_1 10.2815
ns_single_cpu_1 28
pdt_m_rows_cpu_1 20.5485
log_m_access_time_cpu_1 3.36064
log_rows_tot_cpu_1 0.999903
log_pdt_m_rows_cpu_1 4.36054
cores_sketch_cpu_1 2
cores_dpdk_cpu_1 3
ns_sketch_cpu_1 14.2925
ns_dpdk_cpu_1 14.2925
ns_cpu_1 14.2925
pdt_nsk_c_cpu_1 28
log_ns_sketch_cpu_1 3.80745
log_cores_sketch_cpu_1 0.999903
log_pdt_nsk_c_cpu_1 4.80735
pdt_nsc_dpdk_cpu_1 42.8571
log_ns_dpdk_cpu_1 3.83647
log_cores_dpdk_cpu_1 1.58491
log_pdt_nsc_dpdk_cpu_1 5.42138
rows_tot_cpu_1 2
mem_tot_cpu_1 10618.3
m_access_time_cpu_1 10.2815
ns_single_cpu_1 28
pdt_m_rows_cpu_1 20.5485
log_m_access_time_cpu_1 3.36064
log_rows_tot_cpu_1 0.999903
log_pdt_m_rows_cpu_1 4.36054
cores_sketch_cpu_1 2
cores_dpdk_cpu_1 3
ns_sketch_cpu_1 14.001
ns_dpdk_cpu_1 14.2925
ns_cpu_1 14.2925
pdt_nsk_c_cpu_1 28
log_ns_sketch_cpu_1 3.80745
log_cores_sketch_cpu_1 0.999903
log_pdt_nsk_c_cpu_1 4.80735
pdt_nsc_dpdk_cpu_1 42.8571
log_ns_dpdk_cpu_1 3.83647
log_cores_dpdk_cpu_1 1.58491
log_pdt_nsc_dpdk_cpu_1 5.42138
rows_tot_p4_1 5
mem_tot_p4_1 95.5742
ns_p4_1 6.75676
rows_tot_p4_2 4
mem_tot_p4_2 42.4844
ns_p4_2 6.75676
ns 14.2925
res_overall 107.719
-----------------------------

Throughput: 69.96657108740976 Mpps, ns per packet: 14.29253977232488
Resources: 107.71857643127441
Sketch 1 (cm: eps0: 0.0005, del0: 0.02, mim_mem: 21.23828125)
Row: 1
0.0    0.0    1.0    0.0    

Row: 2
0.0    0.0    1.0    0.0    

Row: 3
0.0    0.0    1.0    0.0    

Row: 4
0.0    0.0    1.0    0.0    

Sketch 2 (cm: eps0: 2.0000000000000003e-06, del0: 0.02, mim_mem: 5309.14453125)
Row: 1
0.0    1.0    0.0    0.0    

Row: 2
1.0    0.0    0.0    0.0    

Row: 3
1.0    0.0    0.0    0.0    

Row: 4
0.0    1.0    0.0    0.0    

Sketch 3 (cm: eps0: 0.001, del0: 0.01, mim_mem: 10.62109375)
Row: 1
0.0    0.0    0.0    1.0    

Row: 2
0.0    0.0    1.0    0.0    

Row: 3
0.0    0.0    0.0    1.0    

Row: 4
0.0    0.0    0.0    1.0    

Row: 5
0.0    0.0    0.0    1.0    

Device cpu_1:
cores_sketch: 2.0, cores_dpdk: 3.0
Rows total: 2.0
Mem total: 10618.2890625

Device cpu_1:
cores_sketch: 2.0, cores_dpdk: 3.0
Rows total: 2.0
Mem total: 10618.2890625

Device p4_1:
Rows total: 5.0
Mem total: 95.57421875

Device p4_2:
Rows total: 4.0
Mem total: 42.484375

